(declare-fun temp5738_1 () (_ BitVec 64))
(declare-fun var73260 () (_ BitVec 64))
(declare-fun ARGNAME_pad_NAMEEND_LEN () (_ BitVec 64))
(declare-fun temp5738_2 () (_ BitVec 64))
(declare-fun temp5738_3 () (_ BitVec 64))
(declare-fun var73261 () (_ BitVec 64))
(declare-fun k!0 () (_ BitVec 1))
(declare-fun k!1 () Bool)
(declare-fun temp5738_4 () (_ BitVec 64))
(declare-fun ARGNAME_input_NAMEEND_DIM () (_ BitVec 64))
(declare-fun var73273 () (_ BitVec 64))
(declare-fun var73274 () (_ BitVec 64))
(declare-fun temp5738_5 () (_ BitVec 64))
(declare-fun temp5738_6 () (_ BitVec 64))
(declare-fun ARGNAME_mode_NAMEEND () (_ BitVec 64))
(declare-fun var73285 () (_ BitVec 64))
(declare-fun temp5738_7 () (_ BitVec 64))
(declare-fun temp5738_8 () (_ BitVec 64))
(declare-fun var131889 () (_ BitVec 64))
(declare-fun temp5738_9 () (_ BitVec 64))
(declare-fun var131891 () (_ BitVec 64))
(declare-fun temp5738_10 () (_ BitVec 64))
(declare-fun temp5738_11 () (_ BitVec 64))
(declare-fun var131947 () (_ BitVec 64))
(declare-fun var131949 () (_ BitVec 64))
(declare-fun var131950 () (_ BitVec 64))
(declare-fun temp5738_12 () (_ BitVec 64))
(declare-fun var394824 () (_ BitVec 64))
(declare-fun var464861 () (_ BitVec 64))
(declare-fun var464863 () (_ BitVec 64))
(declare-fun temp5738_13 () (_ BitVec 64))
(declare-fun var530404 () (_ BitVec 64))
(declare-fun var595951 () (_ BitVec 64))
(declare-fun temp5738_14 () (_ BitVec 64))
(declare-fun var132045 () (_ BitVec 64))
(declare-fun temp5738_15 () (_ BitVec 64))
(declare-fun var132033 () (_ BitVec 64))
(declare-fun temp5738_16 () (_ BitVec 64))
(declare-fun temp5738_17 () (_ BitVec 64))
(declare-fun var132167 () (_ BitVec 64))
(declare-fun temp5738_18 () (_ BitVec 64))
(declare-fun temp5738_19 () (_ BitVec 64))
(declare-fun ARGNAME_input_NAMEEND_DIMSIZE
             ()
             (Array (_ BitVec 64) (_ BitVec 64)))
(declare-fun temp5738_20 () (_ BitVec 64))
(declare-fun temp5738_21 () (_ BitVec 64))
(declare-fun temp5738_22 () (_ BitVec 64))
(declare-fun temp5738_23 () (_ BitVec 64))
(declare-fun temp5738_24 () (_ BitVec 64))
(declare-fun temp5738_25 () (_ BitVec 64))
(declare-fun temp5738_26 () (_ BitVec 64))
(declare-fun temp5738_27 () (_ BitVec 64))
(declare-fun temp5738_28 () (_ BitVec 64))
(declare-fun temp5738_29 () (_ BitVec 64))
(declare-fun temp5738_30 () (_ BitVec 64))
(declare-fun temp5738_31 () (_ BitVec 64))
(declare-fun temp5738_32 () (_ BitVec 64))
(declare-fun temp5738_33 () (_ BitVec 64))
(declare-fun temp5738_34 () (_ BitVec 64))
(declare-fun temp5738_35 () (_ BitVec 64))
(declare-fun temp5738_37 () (_ BitVec 64))
(declare-fun temp5738_38 () (_ BitVec 64))
(declare-fun temp5738_36 () (_ BitVec 64))
(declare-fun temp5738_39 () (_ BitVec 64))
(declare-fun var132168 () (_ BitVec 64))
(declare-fun var132171 () (_ BitVec 64))
(declare-fun var1115827 () (_ BitVec 64))
(declare-fun temp5738_42 () (_ BitVec 64))
(declare-fun temp5738_41 () (_ BitVec 64))
(declare-fun var1184585 () (_ BitVec 64))
(declare-fun var1184586 () (_ BitVec 64))
(declare-fun temp5738_43 () (_ BitVec 64))
(declare-fun temp5738_44 () (_ BitVec 64))
(declare-fun var1251034 () (_ BitVec 64))
(declare-fun var1316581 () (_ BitVec 64))
(declare-fun temp5738_45 () (_ BitVec 64))
(declare-fun var1970821 () (_ BitVec 64))
(declare-fun temp5738_46 () (_ BitVec 64))
(declare-fun var3016425 () (_ BitVec 64))
(declare-fun temp5738_47 () (_ BitVec 64))
(declare-fun var3282283 () (_ BitVec 64))
(declare-fun temp5738_48 () (_ BitVec 64))
(declare-fun var3478891 () (_ BitVec 64))
(declare-fun temp5738_49 () (_ BitVec 64))
(declare-fun temp5738_50 () (_ BitVec 64))
(declare-fun var3016493 () (_ BitVec 64))
(declare-fun temp5738_51 () (_ BitVec 64))
(declare-fun temp5738_52 () (_ BitVec 64))
(declare-fun var3016510 () (_ BitVec 64))
(declare-fun var3016423 () (_ BitVec 64))
(declare-fun var132213 () (_ BitVec 64))
(declare-fun temp5738_53 () (_ BitVec 64))
(declare-fun var3739466 () (_ BitVec 64))
(declare-fun var5113416 () (_ BitVec 64))
(declare-fun var5183453 () (_ BitVec 64))
(declare-fun var5183455 () (_ BitVec 64))
(declare-fun temp5738_54 () (_ BitVec 64))
(declare-fun var5248996 () (_ BitVec 64))
(declare-fun var5314543 () (_ BitVec 64))
(assert (= temp5738_1 #x0000000000000001))
(assert (= var73260 (bvand ARGNAME_pad_NAMEEND_LEN temp5738_1)))
(assert (= temp5738_2 #x0000000000000000))
(assert (= var73261 (ite (= var73260 temp5738_2) #x0000000000000001 #x0000000000000000)))
(assert (= temp5738_3 #x0000000000000001))
(assert (= var73261 temp5738_3))
(assert (= temp5738_4 #x0000000000000001))
(assert (= var73273 (bvshl ARGNAME_input_NAMEEND_DIM temp5738_4)))
(assert (= var73274
   (ite (bvsgt ARGNAME_pad_NAMEEND_LEN var73273)
        #x0000000000000001
        #x0000000000000000)))
(assert (= temp5738_5 #x0000000000000000))
(assert (= var73274 temp5738_5))
(assert (= temp5738_6 #x0000000000000003))
(assert (= var73285
   (ite (= ARGNAME_mode_NAMEEND temp5738_6)
        #x0000000000000001
        #x0000000000000000)))
(assert (= temp5738_7 #x0000000000000001))
(assert (= var73285 temp5738_7))
(assert (= temp5738_8 #x0000000000000001))
(assert (= var131889 (bvand ARGNAME_pad_NAMEEND_LEN temp5738_8)))
(assert (= temp5738_9 #x0000000000000000))
(assert (= var131891
   (ite (= var131889 temp5738_9) #x0000000000000001 #x0000000000000000)))
(assert (= temp5738_10 #x0000000000000001))
(assert (= var131891 temp5738_10))
(assert (= temp5738_11 #x0000000000000001))
(assert (= var131947 (bvlshr ARGNAME_pad_NAMEEND_LEN temp5738_11)))
(assert (= var131949 (bvsub ARGNAME_input_NAMEEND_DIM var131947)))
(assert (= var131950
   (ite (bvslt ARGNAME_input_NAMEEND_DIM var131947)
        #x0000000000000001
        #x0000000000000000)))
(assert (= temp5738_12 #x0000000000000000))
(assert (= var131950 temp5738_12))
(assert (= var394824 var131949))
(assert (= var464861 var394824))
(assert (= var464863
   (ite (bvslt var464861 ARGNAME_input_NAMEEND_DIM)
        #x0000000000000001
        #x0000000000000000)))
(assert (= temp5738_13
   (ite (= var464863 #x0000000000000001) ARGNAME_input_NAMEEND_DIM var394824)))
(assert (= var530404 var394824))
(assert (= var595951 var530404))
(assert (= temp5738_14 #x0000000000000001))
(assert (= var132045 temp5738_14))
(assert (= temp5738_15 #x0000000000000000))
(assert (= var132033
   (ite (= var131949 temp5738_15) #x0000000000000001 #x0000000000000000)))
(assert (= temp5738_16 #x0000000000000000))
(assert (= var132033 temp5738_16))
(assert (= temp5738_17 #x0000000000000000))
(assert (= var132167 temp5738_17))
(assert (= temp5738_18 #x0000000000000000))
(assert (= temp5738_19 temp5738_18))
(assert (= temp5738_20 (select ARGNAME_input_NAMEEND_DIMSIZE temp5738_19)))
(assert (= temp5738_21 #x0000000000000001))
(assert (= temp5738_22 temp5738_21))
(assert (= temp5738_23 (select ARGNAME_input_NAMEEND_DIMSIZE temp5738_22)))
(assert (= temp5738_24 #x0000000000000002))
(assert (= temp5738_25 temp5738_24))
(assert (= temp5738_26 (select ARGNAME_input_NAMEEND_DIMSIZE temp5738_25)))
(assert (= temp5738_27 #x0000000000000003))
(assert (= temp5738_28 temp5738_27))
(assert (= temp5738_29 (select ARGNAME_input_NAMEEND_DIMSIZE temp5738_28)))
(assert (= temp5738_30 #x0000000000000004))
(assert (= temp5738_31 temp5738_30))
(assert (= temp5738_32 (select ARGNAME_input_NAMEEND_DIMSIZE temp5738_31)))
(assert (= temp5738_33 #x0000000000000005))
(assert (= temp5738_34 temp5738_33))
(assert (= temp5738_35 (select ARGNAME_input_NAMEEND_DIMSIZE temp5738_34)))
(assert (= temp5738_37 var132167))
(assert (= temp5738_38 (select ARGNAME_input_NAMEEND_DIMSIZE temp5738_37)))
(assert (= temp5738_36 temp5738_38))
(assert (= temp5738_39 #x0000000000000001))
(assert (= var132168 (bvadd var132167 temp5738_39)))
(assert (= var132171
   (ite (= var132168 var131949) #x0000000000000001 #x0000000000000000)))
(assert (= var1115827 var131947))
(assert (= temp5738_42 #x0000000000000000))
(assert (= temp5738_41 temp5738_42))
(assert (= var1184585 var1115827))
(assert (= var1184586
   (ite (bvslt temp5738_41 var1184585) #x0000000000000001 #x0000000000000000)))
(assert (= temp5738_43 (ite (= var1184586 #x0000000000000001) var1115827 temp5738_41)))
(assert (= temp5738_44 #x0000000000000000))
(assert (= var1251034 temp5738_44))
(assert (= var1316581 var1251034))
(assert (= temp5738_45 #x0000000000000001))
(assert (= var1970821 temp5738_45))
(assert (= temp5738_46 #x0000000000000000))
(assert (= var3016425 temp5738_46))
(assert (= temp5738_47 #x0000000000000002))
(assert (= var3282283 temp5738_47))
(assert (= temp5738_48 #x0000000000000003))
(assert (= var3478891 temp5738_48))
(assert (= temp5738_49 #x0000000000000000))
(assert (= var3016425 temp5738_49))
(assert (= temp5738_50 #x0000000000000000))
(assert (= var3016493 temp5738_50))
(assert (= temp5738_51 #x0000000000000000))
(assert (= var3016493 temp5738_51))
(assert (= temp5738_52 #x0000000000000000))
(assert (= var3016510 temp5738_52))
(assert (= var3016423 var3016510))
(assert (= var132213 var3016423))
(assert (= temp5738_53 #x0000000000080000))
(assert (= var3739466 temp5738_53))
(assert (= var5113416 var131949))
(assert (= var5183453 var5113416))
(assert (= var5183455
   (ite (bvslt var5183453 ARGNAME_input_NAMEEND_DIM)
        #x0000000000000001
        #x0000000000000000)))
(assert (= temp5738_54
   (ite (= var5183455 #x0000000000000001) ARGNAME_input_NAMEEND_DIM var5113416)))
(assert (= var5248996 var5113416))
(assert (= var5314543 var5248996))
(model-add temp5738_1 () (_ BitVec 64) #x0000000000000001)
(model-add var73260
           ()
           (_ BitVec 64)
           (concat #b000000000000000000000000000000000000000000000000000000000000000
                   ((_ extract 0 0) ARGNAME_pad_NAMEEND_LEN)))
(model-add temp5738_2 () (_ BitVec 64) #x0000000000000000)
(model-add temp5738_3 () (_ BitVec 64) #x0000000000000001)
(model-add var73261 () (_ BitVec 64) #x0000000000000001)
(model-del k!0)
(model-add ARGNAME_pad_NAMEEND_LEN
           ()
           (_ BitVec 64)
           (concat #b000000000000000000000000000000000000000000000000000000000000000
                   k!0))
(model-del k!1)
(model-add k!0 () (_ BitVec 1) (ite k!1 #b0 (bvnot #b0)))





